NAME : airline78.-285305880.tour
COMMENT : Length = -285305880
COMMENT : Found by LKH [Keld Helsgaun] Tue Jul 13 16:06:54 2021
TYPE : TOUR
DIMENSION : 29
TOUR_SECTION
1
10
18
19
17
6
8
2
5
3
16
21
15
27
26
24
28
25
22
23
29
9
13
14
12
20
7
4
11
-1
EOF
